#.\compute_packing.py
# GMT Sat Nov 23 15:14:04 2024
# 
196476
21824
227174
129564
160426
444678
110835
237154
156835
154577
602184
81995
645056
419060
212925
12830
167736
2488
517400
179873
94591
315859
134851
48369
206924
507937
240387
350824
324352
73956
377979
564598
43688
4693
164465
88351
337725
343518
586900
590036
103917
553028
187400
109141
246165
388067
578386
999
181474
236920
74072
234957
488979
223037
20681
5930
107394
20728
138972
326699
97187
238797
405479
112888
170420
88864
183590
177878
347464
60288
138891
63890
471323
194058
469990
76543
68208
74344
2181
230602
202544
8782
14251
201735
92204
2374
519716
116590
355921
234737
29777
125258
126081
63574
206762
72458
8016
470453
163221
210073
